Minimize
  - 44 y_0 - 40 y_1 - 31 y_2 - 45 y_3 - 7 y_4 - 45 y_5 - 48 y_6 - 52 y_7
   - 40 y_8 - 44 y_9 - 46 y_10 - 39 y_11 - 52 y_12 - 52 y_13 - 34 y_14
   - 10 y_15 - 50 y_16 - 45 y_17 - 12 y_18 - 52 y_19 - 51 y_20 - 20 y_21
   - 62 y_23 - 38 y_24 - 35 y_25 - 38 y_26 - 9 y_27 - 47 y_28 - 19 y_29
   - 63 y_30 - 57 y_31 - 32 y_32 - 47 y_33 - 27 y_34 - 52 y_35 - 33 y_36
   - 59 y_37 - 14 y_38 - 43 y_39 - 16 y_40 - 25 y_41 - 50 y_42 - 31 y_43
   - 47 y_44 - 47 y_45 - 19 y_46 - 42 y_47 - 36 y_48 - 40 y_49
   + 1887 Constant
Subject To
 c_0: y_14 = 1
 c_1_0: y_0 + y_9 + y_10 + y_17 >= 1
 c_1_1: y_1 >= 1
 c_1_2: y_2 + y_34 >= 1
 c_1_3: y_3 >= 1
 c_1_4: y_4 >= 1
 c_1_5: y_5 + y_45 >= 1
 c_1_6: y_6 >= 1
 c_1_7: y_7 + y_19 + y_20 + y_33 + y_44 >= 1
 c_1_8: y_8 >= 1
 c_1_9: y_0 + y_9 + y_10 + y_17 >= 1
 c_1_10: y_0 + y_9 + y_10 + y_17 >= 1
 c_1_11: y_11 + y_25 + y_48 + y_49 >= 1
 c_1_12: y_12 + y_35 + y_42 >= 1
 c_1_13: y_13 >= 1
 c_1_14: y_14 + y_32 >= 1
 c_1_15: y_15 + y_27 >= 1
 c_1_16: y_16 >= 1
 c_1_17: y_0 + y_9 + y_10 + y_17 >= 1
 c_1_18: y_18 + y_38 >= 1
 c_1_19: y_7 + y_19 + y_20 + y_33 + y_44 >= 1
 c_1_20: y_7 + y_19 + y_20 + y_45 >= 1
 c_1_21: y_21 + y_29 >= 1
 c_1_22: y_22 >= 1
 c_1_23: y_23 >= 1
 c_1_24: y_24 >= 1
 c_1_25: y_11 + y_25 + y_48 + y_49 >= 1
 c_1_26: y_26 >= 1
 c_1_27: y_15 + y_27 >= 1
 c_1_28: y_28 >= 1
 c_1_29: y_21 + y_29 >= 1
 c_1_30: y_30 >= 1
 c_1_31: y_31 + y_37 >= 1
 c_1_32: y_14 + y_32 >= 1
 c_1_33: y_7 + y_19 + y_33 + y_44 >= 1
 c_1_34: y_2 + y_34 + y_41 >= 1
 c_1_35: y_12 + y_35 >= 1
 c_1_36: y_36 >= 1
 c_1_37: y_31 + y_37 >= 1
 c_1_38: y_18 + y_38 >= 1
 c_1_39: y_39 >= 1
 c_1_40: y_40 + y_46 >= 1
 c_1_41: y_34 + y_41 >= 1
 c_1_42: y_12 + y_42 + y_45 >= 1
 c_1_43: y_43 >= 1
 c_1_44: y_7 + y_19 + y_33 + y_44 >= 1
 c_1_45: y_5 + y_20 + y_42 + y_45 >= 1
 c_1_46: y_40 + y_46 >= 1
 c_1_47: y_47 >= 1
 c_1_48: y_11 + y_25 + y_48 + y_49 >= 1
 c_1_49: y_11 + y_25 + y_48 + y_49 >= 1
Bounds
 Constant = 1
Binaries
 y_0 y_1 y_2 y_3 y_4 y_5 y_6 y_7 y_8 y_9 y_10 y_11 y_12 y_13 y_14 y_15 y_16
 y_17 y_18 y_19 y_20 y_21 y_22 y_23 y_24 y_25 y_26 y_27 y_28 y_29 y_30 y_31
 y_32 y_33 y_34 y_35 y_36 y_37 y_38 y_39 y_40 y_41 y_42 y_43 y_44 y_45 y_46
 y_47 y_48 y_49
End
